32
100
70	1
69	2
67	1
66	1
64	2
63	2
62	1
60	1
58	1
57	1
56	2
55	1
54	2
53	2
52	1
51	1
50	3
49	1
48	1
47	2
46	2
45	1
42	2
34	2
33	1
29	2
27	4
26	1
25	1
24	1
23	2
21	2
